Version identifier: 22.1.1.0 | 2022-11-28 | 9160aff4d
CPXPARAM_Read_DataCheck                          1
CPXPARAM_MIP_Cuts_Covers                         1
CPXPARAM_MIP_Strategy_NodeSelect                 2
CPXPARAM_MIP_Cuts_FlowCovers                     1
CPXPARAM_MIP_Cuts_MIRCut                         1
CPXPARAM_MIP_Strategy_HeuristicFreq              5
CPXPARAM_TimeLimit                               60
Tried aggregator 2 times.
MIP Presolve eliminated 10 rows and 1 columns.
MIP Presolve added 16 rows and 0 columns.
MIP Presolve modified 2091 coefficients.
Aggregator did 3 substitutions.
Reduced MIP has 732 rows, 1013 columns, and 5191 nonzeros.
Reduced MIP has 989 binaries, 0 generals, 0 SOSs, and 0 indicators.
Presolve time = 0.00 sec. (5.58 ticks)
Found incumbent of value 3230.000000 after 0.01 sec. (13.16 ticks)
Probing time = 0.00 sec. (2.69 ticks)
Tried aggregator 1 time.
Detecting symmetries...
Reduced MIP has 732 rows, 1013 columns, and 5191 nonzeros.
Reduced MIP has 989 binaries, 0 generals, 0 SOSs, and 0 indicators.
Presolve time = 0.00 sec. (3.14 ticks)
Probing time = 0.00 sec. (2.67 ticks)
Clique table members: 3193.
MIP emphasis: balance optimality and feasibility.
MIP search method: dynamic search.
Parallel mode: deterministic, using up to 12 threads.
Root relaxation solution time = 0.01 sec. (6.11 ticks)

        Nodes                                         Cuts/
   Node  Left     Objective  IInf  Best Integer    Best Bound    ItCnt     Gap

*     0+    0                         3230.0000        0.0000           100.00%
*     0+    0                         2145.0000        0.0000           100.00%
      0     0      187.5000    61     2145.0000      187.5000      325   91.26%
      0     0      197.2500    50     2145.0000      Cuts: 51      388   90.80%
      0     0      201.6377    51     2145.0000      Cuts: 51      471   90.60%
      0     0      202.6955    68     2145.0000      Cuts: 32      538   90.55%
      0     0      202.6955    61     2145.0000      Cuts: 33      595   90.55%
      0     0      203.0713    57     2145.0000      Cuts: 16      640   90.53%
Detecting symmetries...
      0     0      203.3000    39     2145.0000      Cuts: 26      678   90.52%
*     0+    0                          308.0000      203.3000            33.99%
      0     0      204.0000    18      308.0000      Cuts: 24      728   33.77%
      0     0      204.0000    20      308.0000      Cuts: 18      766   33.77%
*     0+    0                          257.0000      204.0000            20.62%
Detecting symmetries...

Repeating presolve.
Tried aggregator 1 time.
MIP Presolve eliminated 336 rows and 366 columns.
Reduced MIP has 396 rows, 647 columns, and 2749 nonzeros.
Reduced MIP has 623 binaries, 0 generals, 0 SOSs, and 0 indicators.
Presolve time = 0.00 sec. (1.65 ticks)
Probing time = 0.00 sec. (2.43 ticks)
Tried aggregator 1 time.
Detecting symmetries...
Reduced MIP has 396 rows, 647 columns, and 2749 nonzeros.
Reduced MIP has 623 binaries, 0 generals, 0 SOSs, and 0 indicators.
Presolve time = 0.00 sec. (1.78 ticks)
Represolve time = 0.01 sec. (8.14 ticks)
Probing time = 0.00 sec. (2.43 ticks)
Clique table members: 1956.
MIP emphasis: balance optimality and feasibility.
MIP search method: dynamic search.
Parallel mode: deterministic, using up to 12 threads.
Root relaxation solution time = 0.00 sec. (6.69 ticks)

        Nodes                                         Cuts/
   Node  Left     Objective  IInf  Best Integer    Best Bound    ItCnt     Gap

*     0+    0                          257.0000      204.0000            20.62%
      0     0      204.0000    12      257.0000      204.0000     1084   20.62%
      0     0      204.0109    48      257.0000      Cuts: 28     1179   20.62%
      0     0      204.1622    49      257.0000      Cuts: 32     1205   20.56%
      0     0      204.2108    81      257.0000      Cuts: 14     1229   20.54%
      0     0      204.2721    83      257.0000      Cuts: 38     1259   20.52%
*     0+    0                          227.0000      204.2721            10.01%
      0     0      204.3286    90      227.0000      Cuts: 19     1282    9.99%
      0     0      204.5760    78      227.0000      Cuts: 25     1329    9.88%
      0     0      204.6649    96      227.0000      Cuts: 16     1376    9.84%
      0     0      204.8333    48      227.0000      Cuts: 17     1397    9.77%
      0     0      204.9028    72      227.0000      Cuts: 20     1458    9.73%
      0     0      204.9607    85      227.0000      Cuts: 11     1487    9.71%
      0     0      204.9704    83      227.0000      Cuts: 21     1511    9.70%
      0     0      205.0000    49      227.0000      Cuts: 10     1550    9.69%
      0     0      205.0000    36      227.0000      Cuts: 11     1561    9.69%
      0     0      205.0157    76      227.0000   ZeroHalf: 4     1584    9.68%
*     0+    0                          208.0000      205.0157             1.43%
      0     0        cutoff            208.0000      208.0000     1584    0.00%
Elapsed time = 0.32 sec. (223.56 ticks, tree = 0.01 MB, solutions = 6)

GUB cover cuts applied:  23
Clique cuts applied:  6
Cover cuts applied:  19
Implied bound cuts applied:  3
Flow cuts applied:  2
Mixed integer rounding cuts applied:  33
Zero-half cuts applied:  17
Lift and project cuts applied:  3
Gomory fractional cuts applied:  6

Root node processing (before b&c):
  Real time             =    0.32 sec. (223.64 ticks)
Parallel b&c, 12 threads:
  Real time             =    0.00 sec. (0.00 ticks)
  Sync time (average)   =    0.00 sec.
  Wait time (average)   =    0.00 sec.
                          ------------
Total (root+branch&cut) =    0.32 sec. (223.64 ticks)
